1 85 56 126 134 30 110 104 199 26 17 49 115 68 190 113 151 173 90 60 62 178 39 146 140 37 86 51 54 148 108 184 0 10 145 82 188 21 6 43 112 97 95 23 182 181 55 22 105 168 152 164 32 59 64 135 141 128 8 162 25 77 80 119 161 111 19 195 52 50 79 156 167 118 93 160 187 130 78 63 69 14 170 192 29 120 189 185 102 180 46 12 36 149 166 44 84 198 100 31 65 175 27 154 158 20 153 137 58 171 193 143 98 176 72 177 40 142 127 18 129 186 71 96 73 117 74 183 9 131 42 109 157 7 83 5 191 48 13 15 121 132 169 89 144 33 99 123 35 76 38 45 3 138 61 34 174 11 75 28 2 81 196 163 92 87 101 165 139 103 133 67 172 24 124 4 91 122 106 116 53 125 107 94 47 57 159 41 147 136 88 194 16 197 179 114 70 66 150 155 

